param n := 120;
param c := 1000;
param : V : p w :=
   0	 383	 373
   1	 277	 267
   2	 370	 360
   3	 442	 432
   4	 289	 279
   5	 299	 289
   6	 472	 462
   7	 273	 263
   8	 285	 275
   9	 490	 480
  10	 264	 254
  11	 276	 266
  12	 498	 488
  13	 262	 252
  14	 270	 260
  15	 494	 484
  16	 265	 255
  17	 271	 261
  18	 424	 414
  19	 275	 265
  20	 331	 321
  21	 474	 464
  22	 276	 266
  23	 280	 270
  24	 380	 370
  25	 290	 280
  26	 360	 350
  27	 462	 452
  28	 282	 272
  29	 286	 276
  30	 456	 446
  31	 279	 269
  32	 295	 285
  33	 457	 447
  34	 277	 267
  35	 296	 286
  36	 440	 430
  37	 266	 256
  38	 324	 314
  39	 475	 465
  40	 273	 263
  41	 282	 272
  42	 483	 473
  43	 269	 259
  44	 278	 268
  45	 419	 409
  46	 298	 288
  47	 313	 303
  48	 509	 499
  49	 260	 250
  50	 261	 251
  51	 493	 483
  52	 262	 252
  53	 275	 265
  54	 394	 384
  55	 293	 283
  56	 343	 333
  57	 494	 484
  58	 261	 251
  59	 275	 265
  60	 491	 481
  61	 267	 257
  62	 272	 262
  63	 411	 401
  64	 308	 298
  65	 311	 301
  66	 406	 396
  67	 299	 289
  68	 325	 315
  69	 392	 382
  70	 260	 250
  71	 378	 368
  72	 420	 410
  73	 266	 256
  74	 344	 334
  75	 507	 497
  76	 260	 250
  77	 263	 253
  78	 369	 359
  79	 327	 317
  80	 334	 324
  81	 434	 424
  82	 261	 251
  83	 335	 325
  84	 367	 357
  85	 316	 306
  86	 347	 337
  87	 406	 396
  88	 264	 254
  89	 360	 350
  90	 479	 469
  91	 268	 258
  92	 283	 273
  93	 401	 391
  94	 284	 274
  95	 345	 335
  96	 436	 426
  97	 288	 278
  98	 306	 296
  99	 444	 434
 100	 278	 268
 101	 308	 298
 102	 501	 491
 103	 261	 251
 104	 268	 258
 105	 470	 460
 106	 271	 261
 107	 289	 279
 108	 413	 403
 109	 299	 289
 110	 318	 308
 111	 446	 436
 112	 276	 266
 113	 308	 298
 114	 360	 350
 115	 332	 322
 116	 338	 328
 117	 429	 419
 118	 279	 269
 119	 322	 312
;

set E :=
   0	   3
   0	  14
   0	  22
   0	  31
   0	  34
   0	  36
   0	  50
   0	  51
   0	  68
   0	  70
   0	  75
   0	  78
   0	  91
   0	  92
   0	  94
   0	  97
   0	  98
   0	  99
   0	 100
   0	 104
   0	 108
   1	  17
   1	  19
   1	  29
   1	  38
   1	  39
   1	  41
   1	  55
   1	  60
   1	  64
   1	  66
   1	  67
   1	  83
   1	  93
   1	  97
   1	 103
   1	 104
   1	 106
   1	 108
   2	   8
   2	  14
   2	  20
   2	  28
   2	  31
   2	  36
   2	  42
   2	  47
   2	  51
   2	  56
   2	  57
   2	  67
   2	  76
   2	  77
   2	  84
   2	  98
   2	  99
   2	 111
   3	  10
   3	  18
   3	  20
   3	  30
   3	  31
   3	  35
   3	  36
   3	  38
   3	  49
   3	  51
   3	  55
   3	  58
   3	  63
   3	  69
   3	  80
   3	  85
   3	  91
   3	  92
   3	  93
   3	  98
   3	 106
   3	 109
   3	 119
   4	   8
   4	  12
   4	  22
   4	  32
   4	  35
   4	  38
   4	  40
   4	  50
   4	  54
   4	  55
   4	  58
   4	  59
   4	  60
   4	  64
   4	  70
   4	  72
   4	  73
   4	  74
   4	  75
   4	  76
   4	  78
   4	  79
   4	  80
   4	  82
   4	  92
   4	 100
   4	 102
   4	 106
   4	 107
   4	 117
   4	 118
   5	   8
   5	  16
   5	  19
   5	  20
   5	  28
   5	  30
   5	  36
   5	  38
   5	  53
   5	  54
   5	  58
   5	  62
   5	  66
   5	  67
   5	  71
   5	  74
   5	  77
   5	  79
   5	  85
   5	  86
   5	  96
   5	 101
   5	 107
   5	 116
   5	 118
   6	  13
   6	  17
   6	  25
   6	  27
   6	  29
   6	  34
   6	  37
   6	  40
   6	  45
   6	  46
   6	  48
   6	  53
   6	  55
   6	  56
   6	  57
   6	  58
   6	  63
   6	  64
   6	  67
   6	  68
   6	  70
   6	  74
   6	  76
   6	  81
   6	  93
   6	 100
   6	 108
   6	 109
   6	 119
   7	  10
   7	  14
   7	  16
   7	  17
   7	  18
   7	  20
   7	  21
   7	  23
   7	  24
   7	  25
   7	  31
   7	  34
   7	  39
   7	  57
   7	  62
   7	  85
   7	  94
   7	  95
   7	  97
   7	 105
   7	 107
   7	 109
   8	  10
   8	  11
   8	  12
   8	  14
   8	  23
   8	  32
   8	  43
   8	  46
   8	  47
   8	  50
   8	  54
   8	  55
   8	  65
   8	  67
   8	  70
   8	  72
   8	  77
   8	  84
   8	  91
   8	  94
   8	  97
   8	  98
   8	 105
   8	 110
   8	 113
   8	 115
   8	 117
   8	 118
   8	 119
   9	  11
   9	  15
   9	  26
   9	  36
   9	  41
   9	  50
   9	  60
   9	  62
   9	  64
   9	  68
   9	  69
   9	  71
   9	  72
   9	  79
   9	  83
   9	  86
   9	  89
   9	  94
   9	  96
   9	  98
   9	  99
   9	 105
   9	 112
  10	  23
  10	  25
  10	  29
  10	  32
  10	  41
  10	  44
  10	  45
  10	  53
  10	  57
  10	  64
  10	  66
  10	  67
  10	  71
  10	  74
  10	  77
  10	  78
  10	  89
  10	  91
  10	  92
  10	  95
  10	  96
  10	  97
  10	 106
  10	 109
  10	 116
  11	  12
  11	  24
  11	  27
  11	  28
  11	  30
  11	  38
  11	  40
  11	  41
  11	  42
  11	  50
  11	  52
  11	  55
  11	  60
  11	  61
  11	  66
  11	  74
  11	  76
  11	  84
  11	  85
  11	  93
  11	  94
  11	  97
  11	 104
  11	 107
  11	 112
  11	 113
  11	 116
  11	 118
  12	  14
  12	  23
  12	  27
  12	  35
  12	  37
  12	  39
  12	  50
  12	  52
  12	  54
  12	  71
  12	  76
  12	  83
  12	  84
  12	  90
  12	 105
  12	 109
  12	 114
  12	 115
  12	 116
  12	 117
  13	  16
  13	  28
  13	  31
  13	  32
  13	  41
  13	  44
  13	  46
  13	  49
  13	  52
  13	  55
  13	  58
  13	  63
  13	  64
  13	  65
  13	  66
  13	  67
  13	  68
  13	  70
  13	  72
  13	  76
  13	  77
  13	  81
  13	  85
  13	  93
  13	  96
  13	 102
  13	 104
  13	 105
  13	 107
  13	 114
  13	 116
  13	 117
  13	 118
  14	  19
  14	  22
  14	  36
  14	  40
  14	  41
  14	  58
  14	  65
  14	  68
  14	  73
  14	  74
  14	  75
  14	  79
  14	  80
  14	  82
  14	 108
  14	 110
  15	  18
  15	  22
  15	  24
  15	  25
  15	  41
  15	  47
  15	  49
  15	  53
  15	  56
  15	  63
  15	  87
  15	  88
  15	 100
  15	 101
  15	 108
  15	 116
  16	  18
  16	  26
  16	  27
  16	  32
  16	  38
  16	  42
  16	  45
  16	  48
  16	  49
  16	  50
  16	  51
  16	  59
  16	  60
  16	  65
  16	  66
  16	  68
  16	  72
  16	  75
  16	  76
  16	  78
  16	  79
  16	  85
  16	  88
  16	  93
  16	  96
  16	  97
  16	 108
  16	 110
  16	 117
  16	 119
  17	  27
  17	  33
  17	  38
  17	  42
  17	  48
  17	  50
  17	  55
  17	  61
  17	  80
  17	  82
  17	  88
  17	  89
  17	  93
  17	  96
  17	 101
  17	 114
  18	  28
  18	  31
  18	  33
  18	  38
  18	  40
  18	  47
  18	  61
  18	  74
  18	  75
  18	  78
  18	 100
  18	 101
  18	 114
  19	  21
  19	  29
  19	  30
  19	  34
  19	  37
  19	  40
  19	  58
  19	  59
  19	  62
  19	  72
  19	  78
  19	  80
  19	  82
  19	  87
  19	  91
  19	  92
  19	  98
  19	 101
  19	 102
  19	 106
  19	 117
  20	  24
  20	  25
  20	  28
  20	  30
  20	  35
  20	  36
  20	  42
  20	  43
  20	  45
  20	  51
  20	  58
  20	  60
  20	  62
  20	  78
  20	  85
  20	  87
  20	  88
  20	 102
  20	 105
  20	 106
  20	 112
  21	  35
  21	  39
  21	  44
  21	  46
  21	  50
  21	  51
  21	  57
  21	  59
  21	  70
  21	  73
  21	  78
  21	  82
  21	  86
  21	  88
  21	  92
  21	 111
  21	 114
  21	 115
  21	 119
  22	  23
  22	  27
  22	  28
  22	  31
  22	  36
  22	  41
  22	  43
  22	  48
  22	  52
  22	  55
  22	  56
  22	  61
  22	  63
  22	  64
  22	  65
  22	  66
  22	  69
  22	  76
  22	  80
  22	  81
  22	  88
  22	 102
  22	 104
  22	 105
  22	 107
  22	 111
  22	 114
  23	  34
  23	  35
  23	  40
  23	  45
  23	  50
  23	  57
  23	  59
  23	  62
  23	  63
  23	  66
  23	  69
  23	  74
  23	  81
  23	  83
  23	  85
  23	 108
  24	  29
  24	  35
  24	  40
  24	  44
  24	  46
  24	  49
  24	  52
  24	  58
  24	  61
  24	  66
  24	 111
  24	 115
  24	 119
  25	  31
  25	  37
  25	  48
  25	  52
  25	  58
  25	  61
  25	  63
  25	  69
  25	  70
  25	  73
  25	  75
  25	  77
  25	  78
  25	  82
  25	  85
  25	  98
  25	  99
  25	 103
  25	 119
  26	  31
  26	  35
  26	  53
  26	  54
  26	  62
  26	  64
  26	  74
  26	  86
  26	  87
  26	  88
  26	  98
  26	  99
  26	 106
  26	 117
  27	  45
  27	  48
  27	  56
  27	  59
  27	  60
  27	  61
  27	  62
  27	  78
  27	  80
  27	  84
  27	  87
  27	  99
  27	 100
  27	 102
  27	 103
  27	 105
  27	 114
  27	 116
  28	  33
  28	  40
  28	  49
  28	  51
  28	  52
  28	  53
  28	  56
  28	  67
  28	  70
  28	  72
  28	  73
  28	  85
  28	  89
  28	  91
  28	  94
  28	 112
  28	 118
  28	 119
  29	  38
  29	  46
  29	  60
  29	  71
  29	  75
  29	  77
  29	  84
  29	  92
  29	  95
  29	 103
  29	 105
  29	 113
  29	 114
  29	 116
  30	  36
  30	  37
  30	  39
  30	  41
  30	  44
  30	  59
  30	  60
  30	  64
  30	  65
  30	  71
  30	  75
  30	  79
  30	  84
  30	  87
  30	  93
  30	 100
  30	 104
  30	 106
  30	 109
  30	 110
  30	 113
  31	  35
  31	  43
  31	  49
  31	  50
  31	  51
  31	  52
  31	  55
  31	  61
  31	  68
  31	  69
  31	  75
  31	  80
  31	  85
  31	  99
  31	 107
  31	 109
  31	 110
  31	 111
  31	 114
  32	  33
  32	  34
  32	  35
  32	  40
  32	  52
  32	  54
  32	  58
  32	  60
  32	  68
  32	  73
  32	  74
  32	  76
  32	  88
  32	  92
  32	 103
  32	 109
  32	 115
  33	  35
  33	  41
  33	  43
  33	  58
  33	  64
  33	  65
  33	  66
  33	  68
  33	  69
  33	  79
  33	  89
  33	  92
  33	  93
  33	 100
  33	 111
  33	 116
  33	 117
  33	 119
  34	  35
  34	  39
  34	  41
  34	  44
  34	  48
  34	  49
  34	  52
  34	  53
  34	  57
  34	  65
  34	  70
  34	  77
  34	  81
  34	  83
  34	  91
  34	  98
  34	 102
  34	 111
  34	 118
  35	  41
  35	  48
  35	  54
  35	  61
  35	  64
  35	  65
  35	  71
  35	  72
  35	  75
  35	  77
  35	  78
  35	  83
  35	  85
  35	 102
  35	 104
  36	  38
  36	  39
  36	  45
  36	  46
  36	  56
  36	  62
  36	  71
  36	  75
  36	  78
  36	  80
  36	  84
  36	  86
  36	 101
  36	 104
  36	 106
  36	 113
  36	 118
  36	 119
  37	  50
  37	  57
  37	  59
  37	  83
  37	  84
  37	  92
  37	  98
  37	 105
  37	 108
  37	 111
  37	 113
  37	 114
  38	  43
  38	  44
  38	  54
  38	  63
  38	  66
  38	  70
  38	  71
  38	  73
  38	  74
  38	  82
  38	  84
  38	  91
  38	  93
  38	  97
  38	  98
  38	 103
  38	 109
  38	 114
  38	 117
  39	  51
  39	  56
  39	  57
  39	  63
  39	  69
  39	  73
  39	  75
  39	  80
  39	  87
  39	  88
  39	 104
  39	 107
  39	 116
  40	  42
  40	  44
  40	  49
  40	  50
  40	  59
  40	  60
  40	  82
  40	  89
  40	 101
  40	 102
  40	 103
  40	 104
  40	 106
  41	  45
  41	  47
  41	  48
  41	  54
  41	  61
  41	  68
  41	  71
  41	  74
  41	  77
  41	  78
  41	  83
  41	  84
  41	  88
  41	  98
  41	 100
  41	 102
  41	 103
  42	  44
  42	  50
  42	  54
  42	  57
  42	  59
  42	  79
  42	  85
  42	  86
  42	  87
  42	  92
  42	  94
  42	  99
  42	 103
  42	 105
  42	 108
  42	 114
  42	 117
  42	 118
  43	  46
  43	  49
  43	  61
  43	  69
  43	  77
  43	  79
  43	  81
  43	  84
  43	  85
  43	  89
  43	 100
  43	 102
  43	 105
  43	 107
  43	 109
  43	 110
  43	 111
  43	 115
  44	  51
  44	  54
  44	  56
  44	  65
  44	  74
  44	  77
  44	  82
  44	  83
  44	  84
  44	  89
  44	  94
  44	 107
  44	 110
  44	 112
  45	  51
  45	  52
  45	  68
  45	  71
  45	  74
  45	  79
  45	  92
  45	  96
  45	 103
  45	 106
  45	 116
  46	  62
  46	  65
  46	  71
  46	  72
  46	  80
  46	  87
  46	  95
  46	 100
  46	 103
  46	 109
  46	 115
  47	  51
  47	  52
  47	  58
  47	  63
  47	  67
  47	  76
  47	  78
  47	  82
  47	  88
  47	  90
  47	  91
  47	 108
  48	  53
  48	  58
  48	  62
  48	  67
  48	  68
  48	  73
  48	  84
  48	  90
  48	  91
  48	  92
  48	  94
  48	  95
  48	  98
  48	 103
  48	 106
  48	 113
  48	 115
  48	 118
  49	  56
  49	  60
  49	  62
  49	  68
  49	  84
  49	  86
  49	  91
  49	  92
  49	  98
  49	  99
  49	 106
  49	 114
  49	 118
  50	  58
  50	  60
  50	  71
  50	  80
  50	  97
  50	 102
  50	 104
  50	 111
  50	 117
  50	 118
  51	  56
  51	  60
  51	  66
  51	  69
  51	  72
  51	  73
  51	  79
  51	  90
  51	  95
  51	  96
  51	 108
  51	 110
  51	 116
  52	  60
  52	  66
  52	  67
  52	  71
  52	  76
  52	  80
  52	  82
  52	  83
  52	  85
  52	  93
  52	  96
  52	  97
  53	  55
  53	  63
  53	  64
  53	  71
  53	  75
  53	  81
  53	  83
  53	  86
  53	  87
  53	  93
  53	 109
  53	 112
  53	 113
  53	 116
  53	 119
  54	  60
  54	  71
  54	  72
  54	  75
  54	  76
  54	  89
  54	  94
  54	 101
  54	 102
  54	 114
  54	 117
  54	 118
  55	  60
  55	  62
  55	  69
  55	  73
  55	  81
  55	  89
  55	  92
  55	  96
  55	  99
  55	 115
  56	  57
  56	  62
  56	  63
  56	  64
  56	  79
  56	  80
  56	  81
  56	  82
  56	  84
  56	  90
  56	  94
  56	  95
  56	  96
  56	 105
  56	 109
  57	  62
  57	  63
  57	  79
  57	  83
  57	  85
  57	  91
  57	  92
  57	  94
  57	  99
  57	 105
  57	 112
  57	 118
  57	 119
  58	  61
  58	  63
  58	  65
  58	  66
  58	  68
  58	  73
  58	  75
  58	  77
  58	  88
  58	  91
  58	  98
  58	 100
  58	 101
  58	 109
  58	 114
  58	 116
  59	  69
  59	  74
  59	  75
  59	  76
  59	  88
  59	  92
  59	  95
  59	  96
  59	  97
  59	 100
  59	 108
  59	 111
  59	 114
  60	  65
  60	  66
  60	  71
  60	  74
  60	  78
  60	  83
  60	  85
  60	  95
  60	 108
  60	 110
  60	 117
  61	  63
  61	  67
  61	  70
  61	  76
  61	  78
  61	  80
  61	  81
  61	  83
  61	  84
  61	  85
  61	  87
  61	  91
  61	  98
  61	 102
  61	 103
  61	 104
  61	 105
  61	 109
  61	 110
  62	  68
  62	  69
  62	  81
  62	  88
  62	  90
  62	  91
  62	  96
  62	 102
  62	 104
  62	 108
  62	 112
  62	 113
  62	 114
  62	 116
  62	 117
  63	  67
  63	  71
  63	  80
  63	  94
  63	 103
  63	 104
  63	 114
  63	 116
  63	 117
  63	 118
  63	 119
  64	  68
  64	  72
  64	  75
  64	  79
  64	  86
  64	  94
  64	  98
  64	 106
  64	 114
  64	 115
  64	 117
  65	  81
  65	 116
  66	  79
  66	  82
  66	  86
  66	  91
  66	  92
  66	  93
  66	  95
  66	 100
  66	 105
  66	 106
  66	 115
  67	  69
  67	  73
  67	  85
  67	  86
  67	  91
  67	  94
  67	  95
  67	 102
  67	 103
  67	 105
  67	 118
  68	  73
  68	  74
  68	  83
  68	  95
  68	  98
  68	  99
  68	 102
  68	 111
  68	 114
  68	 117
  68	 119
  69	  71
  69	  78
  69	  81
  69	  91
  69	  92
  69	  99
  69	 100
  69	 101
  69	 108
  69	 114
  69	 115
  69	 117
  70	  72
  70	  79
  70	  82
  70	  84
  70	  85
  70	  86
  70	  89
  70	  98
  70	 100
  70	 109
  70	 110
  70	 112
  70	 114
  70	 116
  70	 118
  71	  73
  71	  77
  71	  81
  71	  82
  71	  85
  71	  91
  71	  98
  71	  99
  71	 100
  71	 106
  71	 109
  71	 110
  72	  73
  72	  77
  72	  78
  72	  81
  72	  91
  72	  94
  72	  95
  72	  96
  72	 105
  72	 111
  72	 112
  72	 113
  73	  77
  73	  78
  73	  89
  73	  94
  73	 101
  73	 103
  73	 113
  73	 116
  74	  85
  74	  87
  74	  92
  74	  93
  74	  94
  74	  96
  74	 108
  74	 109
  74	 115
  74	 116
  74	 118
  75	  79
  75	  85
  75	  88
  75	  97
  75	  98
  75	 105
  75	 110
  75	 115
  75	 118
  76	  80
  76	  83
  76	  90
  76	  92
  76	  93
  76	  96
  76	 100
  76	 103
  76	 104
  76	 107
  76	 109
  76	 111
  77	  86
  77	  95
  77	 107
  77	 110
  77	 116
  78	  79
  78	  80
  78	  81
  78	  95
  78	  96
  78	  98
  78	  99
  78	 112
  78	 119
  79	  91
  79	  93
  79	  95
  79	 102
  79	 103
  79	 116
  80	  81
  80	  85
  80	  89
  80	  90
  80	  92
  80	  99
  80	 100
  80	 107
  80	 118
  81	  82
  81	  91
  81	  96
  81	  99
  81	 101
  81	 110
  82	  86
  82	  87
  82	  94
  82	  98
  82	 100
  82	 104
  82	 108
  82	 115
  82	 118
  82	 119
  83	  90
  83	 107
  83	 110
  84	  85
  84	  86
  84	  92
  84	  94
  84	 102
  84	 104
  84	 109
  84	 113
  85	  87
  85	  95
  85	  99
  85	 101
  85	 102
  85	 104
  85	 108
  85	 111
  85	 112
  85	 115
  86	  90
  86	  97
  86	 102
  86	 106
  86	 107
  86	 108
  86	 109
  86	 110
  87	 101
  87	 103
  87	 108
  87	 113
  87	 114
  88	  89
  88	 100
  88	 102
  88	 112
  88	 113
  89	  94
  89	  95
  89	 108
  89	 110
  89	 116
  90	  93
  90	  96
  90	 104
  90	 112
  90	 115
  90	 116
  91	  94
  91	  96
  91	  98
  91	 100
  91	 104
  91	 107
  91	 108
  92	  93
  92	 107
  92	 115
  92	 117
  93	  98
  93	 105
  93	 108
  93	 111
  93	 114
  94	  99
  94	 109
  95	  97
  95	  98
  95	 100
  95	 103
  95	 107
  95	 118
  96	 100
  96	 106
  96	 117
  97	 103
  97	 108
  97	 118
  98	 102
  98	 105
  98	 110
  98	 115
  98	 118
  99	 109
  99	 110
  99	 112
 100	 102
 100	 118
 100	 119
 102	 103
 102	 110
 102	 111
 103	 104
 103	 106
 103	 107
 103	 108
 104	 107
 104	 115
 105	 106
 105	 113
 106	 108
 106	 112
 106	 113
 106	 116
 106	 119
 107	 111
 107	 112
 108	 113
 108	 115
 109	 114
 109	 119
 110	 116
 111	 113
 111	 115
 111	 117
 112	 115
 112	 119
 113	 116
 114	 119
;
